1 : 0 5 7 3 11 8 6 15 10 9 4 12 13
2 : 4 0 3 6 8 10 14 5 7 12 15 9 13
3 : 6 4 0 4 13 11 15 8 5 14 7 10 12
4 : 4 5 6 0 10 14 12 3 9 11 13 7 15
5 : 9 7 10 12 0 6 11 14 15 8 5 4 13
6 : 3 14 9 15 8 0 12 7 13 10 11 4 6
7 : 13 10 15 11 6 12 0 9 8 7 14 5 3
8 : 14 8 12 3 7 5 4 0 10 13 6 9 11
9 : 11 6 5 9 4 13 7 10 0 15 12 14 8
10: 7 15 14 11 13 10 9 4 6 0 8 12 3
11: 15 3 7 13 5 11 8 6 12 4 0 10 9
12: 8 11 10 7 14 4 5 9 15 12 10 0 6
13: 10 13 12 15 3 7 6 11 14 5 9 8 0